Version identifier: 22.1.0.0 | 2022-03-09 | 1a383f8ce
CPXPARAM_Threads                                 1
CPXPARAM_MIP_Strategy_VariableSelect             3
CPXPARAM_TimeLimit                               599.999981682
1 of 1 MIP starts provided solutions.
MIP start 'm1' defined initial solution with objective 6.0000.
Tried aggregator 1 time.
MIP Presolve eliminated 26 rows and 0 columns.
MIP Presolve modified 189 coefficients.
Reduced MIP has 2695 rows, 6300 columns, and 123429 nonzeros.
Reduced MIP has 6300 binaries, 0 generals, 0 SOSs, and 0 indicators.
Presolve time = 0.14 sec. (224.30 ticks)
Probing time = 0.02 sec. (23.75 ticks)
Tried aggregator 1 time.
Detecting symmetries...
MIP Presolve modified 11 coefficients.
Reduced MIP has 2695 rows, 6300 columns, and 123690 nonzeros.
Reduced MIP has 6300 binaries, 0 generals, 0 SOSs, and 0 indicators.
Presolve time = 0.11 sec. (166.81 ticks)
Probing time = 0.02 sec. (23.77 ticks)
Clique table members: 974.
MIP emphasis: balance optimality and feasibility.
MIP search method: dynamic search.
Parallel mode: none, using 1 thread.
Root relaxation solution time = 6.41 sec. (7421.96 ticks)

        Nodes                                         Cuts/
   Node  Left     Objective  IInf  Best Integer    Best Bound    ItCnt     Gap

*     0+    0                            6.0000    45150.0000              --- 
      0     0      300.0000  1360        6.0000      300.0000    14038     --- 
*     0+    0                           27.0000      300.0000              --- 
*     0+    0                          281.0000      300.0000             6.76%
*     0+    0                          286.0000      300.0000             4.90%
      0     0        cutoff            286.0000      300.0000    14038    4.90%
Detecting symmetries...
      0     2      300.0000   230      286.0000      300.0000    14038    4.90%
Elapsed time = 29.00 sec. (31491.30 ticks, tree = 0.01 MB, solutions = 4)
      1     3      300.0000  1023      286.0000      300.0000    33659    4.90%
      2     4      300.0000   664      286.0000      300.0000    43628    4.90%
      3     5      300.0000  1080      286.0000      300.0000    55835    4.90%
      4     6      300.0000   641      286.0000      300.0000    55945    4.90%
      5     7      300.0000   605      286.0000      300.0000    61769    4.90%
      6     8      300.0000   616      286.0000      300.0000    64830    4.90%
      7     9      300.0000   701      286.0000      300.0000    65217    4.90%
      8    10      300.0000   809      286.0000      300.0000    76548    4.90%
      9    11      300.0000   616      286.0000      300.0000    76811    4.90%
     10    12      300.0000   810      286.0000      300.0000    78141    4.90%
Elapsed time = 61.42 sec. (64162.15 ticks, tree = 0.13 MB, solutions = 4)
     12    14      300.0000   620      286.0000      300.0000    80177    4.90%
     13    15      300.0000  1137      286.0000      300.0000    88425    4.90%
     15    17      300.0000  1232      286.0000      300.0000    91299    4.90%
     18    20      300.0000   618      286.0000      300.0000    96336    4.90%
     20    22      300.0000  1329      286.0000      300.0000   102786    4.90%
     22    24      300.0000   727      286.0000      300.0000   104026    4.90%
     24    26      300.0000  1108      286.0000      300.0000   105084    4.90%
     25    27      300.0000   810      286.0000      300.0000   108674    4.90%
     27    29      300.0000   973      286.0000      300.0000   114950    4.90%
     29    31      300.0000   766      286.0000      300.0000   117003    4.90%
Elapsed time = 75.96 sec. (79405.56 ticks, tree = 0.58 MB, solutions = 4)
     30    32      300.0000   726      286.0000      300.0000   117004    4.90%
     32    34      300.0000  1358      286.0000      300.0000   124672    4.90%
     34    36      300.0000   637      286.0000      300.0000   128032    4.90%
     36    38      300.0000  1115      286.0000      300.0000   130216    4.90%
     38    40      300.0000   630      286.0000      300.0000   133692    4.90%
     40    42      300.0000   613      286.0000      300.0000   141166    4.90%
     41    43      300.0000   603      286.0000      300.0000   141746    4.90%
     42    44      300.0000  1073      286.0000      300.0000   144140    4.90%
     45    47      300.0000   721      286.0000      300.0000   151067    4.90%
     47    49      300.0000   886      286.0000      300.0000   160764    4.90%
Elapsed time = 106.77 sec. (110227.40 ticks, tree = 1.00 MB, solutions = 4)
     49    51      300.0000   814      286.0000      300.0000   163250    4.90%
     50    52      300.0000   716      286.0000      300.0000   163296    4.90%
     52    54      300.0000   704      286.0000      300.0000   166193    4.90%
     53    55      300.0000   671      286.0000      300.0000   171148    4.90%
     54    56      300.0000  1186      286.0000      300.0000   175008    4.90%
     55    57      300.0000  1080      286.0000      300.0000   175405    4.90%
     56    58      300.0000  1215      286.0000      300.0000   178615    4.90%
     58    60      300.0000   669      286.0000      300.0000   180226    4.90%
     60    62      300.0000   612      286.0000      300.0000   183065    4.90%
     62    64      300.0000   608      286.0000      300.0000   185781    4.90%
Elapsed time = 122.71 sec. (126132.62 ticks, tree = 1.35 MB, solutions = 4)
     65    67      300.0000   609      286.0000      300.0000   186361    4.90%
     67    69      300.0000   591      286.0000      300.0000   188095    4.90%
     69    71      300.0000   592      286.0000      300.0000   191557    4.90%
     70    72      300.0000   634      286.0000      300.0000   197103    4.90%
     72    74      300.0000   700      286.0000      300.0000   206095    4.90%
     74    76      300.0000   601      286.0000      300.0000   211205    4.90%
     76    78      300.0000  1018      286.0000      300.0000   213398    4.90%
     78    80      300.0000   626      286.0000      300.0000   217065    4.90%
     80    82      300.0000   595      286.0000      300.0000   218731    4.90%
     83    85      300.0000   567      286.0000      300.0000   224453    4.90%
Elapsed time = 136.19 sec. (139662.32 ticks, tree = 1.86 MB, solutions = 4)
     84    86      300.0000   930      286.0000      300.0000   226587    4.90%
     87    89      300.0000   509      286.0000      300.0000   231050    4.90%
     88    90      300.0000   925      286.0000      300.0000   238434    4.90%
     90    92      300.0000   872      286.0000      300.0000   242803    4.90%
     91    93      300.0000  1025      286.0000      300.0000   244989    4.90%
     92    94      300.0000  1023      286.0000      300.0000   256249    4.90%
     94    96      300.0000   845      286.0000      300.0000   261206    4.90%
     95    97      300.0000   965      286.0000      300.0000   262494    4.90%
     97    99      300.0000   823      286.0000      300.0000   265364    4.90%
     99   101      300.0000   812      286.0000      300.0000   267234    4.90%
Elapsed time = 152.64 sec. (156559.21 ticks, tree = 2.20 MB, solutions = 4)
    101   103      300.0000   816      286.0000      300.0000   270976    4.90%
    102   104      300.0000  1015      286.0000      300.0000   278761    4.90%
    104   106      300.0000   932      286.0000      300.0000   281284    4.90%
    107   109      300.0000   955      286.0000      300.0000   282902    4.90%
    109   111      300.0000   781      286.0000      300.0000   285334    4.90%
    110   112      300.0000   877      286.0000      300.0000   291657    4.90%
    112   114      300.0000   883      286.0000      300.0000   294280    4.90%
    115   117      300.0000   860      286.0000      300.0000   297799    4.90%
    118   120      300.0000   827      286.0000      300.0000   303940    4.90%
    121   123      300.0000   750      286.0000      300.0000   305091    4.90%
Elapsed time = 166.41 sec. (171166.51 ticks, tree = 2.71 MB, solutions = 4)
    124   126      300.0000   725      286.0000      300.0000   307841    4.90%
    127   129      300.0000   737      286.0000      300.0000   309462    4.90%
    130   132      300.0000   781      286.0000      300.0000   316526    4.90%
    133   135      300.0000   705      286.0000      300.0000   323297    4.90%
    135   137      300.0000   717      286.0000      300.0000   324519    4.90%
    137   139      300.0000   720      286.0000      300.0000   326219    4.90%
    138   140      300.0000   629      286.0000      300.0000   329836    4.90%
    140   142      300.0000   668      286.0000      300.0000   335342    4.90%
    142   144      300.0000   632      286.0000      300.0000   340331    4.90%
    145   147      300.0000   637      286.0000      300.0000   344510    4.90%
Elapsed time = 183.25 sec. (188206.07 ticks, tree = 3.25 MB, solutions = 4)
    147   149      300.0000   639      286.0000      300.0000   349416    4.90%
    150   152      300.0000   629      286.0000      300.0000   352605    4.90%
    153   154      299.0000   765      286.0000      300.0000   358616    4.90%
    156   155      300.0000   646      286.0000      300.0000   362970    4.90%
    159   158      300.0000   643      286.0000      300.0000   368092    4.90%
    161   159      300.0000   674      286.0000      300.0000   371944    4.90%
    164   162      300.0000   651      286.0000      300.0000   377437    4.90%
    167   164      300.0000   650      286.0000      300.0000   382876    4.90%
    170   165      299.0000   757      286.0000      300.0000   391761    4.90%
    173   168      300.0000   651      286.0000      300.0000   393414    4.90%
Elapsed time = 196.13 sec. (200401.02 ticks, tree = 3.74 MB, solutions = 4)
    176   169      299.0000   768      286.0000      300.0000   400951    4.90%
    178   170      300.0000   641      286.0000      300.0000   405432    4.90%
    181   173      300.0000   634      286.0000      300.0000   411750    4.90%
    183   175      300.0000   598      286.0000      300.0000   418358    4.90%
    185   177      300.0000   619      286.0000      300.0000   428928    4.90%
    188   180      300.0000   589      286.0000      300.0000   433504    4.90%
    190   182      300.0000   617      286.0000      300.0000   441490    4.90%
    193   184      299.0890   733      286.0000      300.0000   446640    4.90%
    195   186      300.0000   596      286.0000      300.0000   451971    4.90%
    202   193      300.0000   515      286.0000      300.0000   476756    4.90%
Elapsed time = 213.82 sec. (216289.52 ticks, tree = 4.36 MB, solutions = 4)
    211   201      300.0000   503      286.0000      300.0000   503141    4.90%
    221   208      300.0000   554      286.0000      300.0000   532430    4.90%
    231   215      300.0000   490      286.0000      300.0000   562005    4.90%
    240   221      300.0000   458      286.0000      300.0000   593912    4.90%
    251   228      298.0000   550      286.0000      300.0000   623047    4.90%
    262   236      298.9167   485      286.0000      300.0000   651270    4.90%
    274   246      299.0000   543      286.0000      300.0000   671937    4.90%
    285   252      299.0000   544      286.0000      300.0000   697449    4.90%
    298   262      299.0000   515      286.0000      300.0000   716546    4.90%
    306   268      299.0000   479      286.0000      300.0000   732107    4.90%
Elapsed time = 260.06 sec. (256391.24 ticks, tree = 6.13 MB, solutions = 4)
    316   277      299.0000   465      286.0000      300.0000   753727    4.90%
    329   286      298.5000   485      286.0000      300.0000   777079    4.90%
    343   296      299.0000   409      286.0000      300.0000   798291    4.90%
    359   306      299.0000   367      286.0000      300.0000   821305    4.90%
    374   317      299.0000   362      286.0000      300.0000   843192    4.90%
    392   327      299.0000   371      286.0000      300.0000   865462    4.90%
    409   340      299.0000   347      286.0000      300.0000   885749    4.90%
    426   353      299.0000   324      286.0000      300.0000   908631    4.90%
    441   363      298.0000   398      286.0000      300.0000   935905    4.90%
    458   374      299.0000   277      286.0000      300.0000   968649    4.90%
Elapsed time = 304.35 sec. (296269.32 ticks, tree = 8.62 MB, solutions = 4)
    472   383      298.6667   332      286.0000      300.0000  1000719    4.90%
    489   394      298.5000   310      286.0000      300.0000  1037320    4.90%
    503   401      298.0000   328      286.0000      300.0000  1066645    4.90%
    523   414      298.0000   317      286.0000      300.0000  1088702    4.90%
    545   430      298.0000   245      286.0000      300.0000  1107871    4.90%
    566   446      298.0000   238      286.0000      300.0000  1132075    4.90%
    588   460      298.0000   224      286.0000      300.0000  1165774    4.90%
    611   474      297.0000   236      286.0000      300.0000  1197555    4.90%
    636   493      296.0000   227      286.0000      300.0000  1226277    4.90%
    665   507      294.5000   275      286.0000      300.0000  1261215    4.90%
Elapsed time = 349.71 sec. (335616.08 ticks, tree = 11.74 MB, solutions = 4)
    697   523      293.0000   267      286.0000      300.0000  1286627    4.90%
    729   541      293.0000   260      286.0000      300.0000  1308544    4.90%
    751   546      298.0000   567      286.0000      300.0000  1330932    4.90%
    764   557      298.0000   456      286.0000      300.0000  1355759    4.90%
    779   570      298.0000   377      286.0000      300.0000  1370708    4.90%
    793   579      297.1389   492      286.0000      300.0000  1404075    4.90%
    803   586      297.3266   448      286.0000      300.0000  1427320    4.90%
    821   598      298.0000   342      286.0000      300.0000  1448734    4.90%
    837   611      298.0000   306      286.0000      300.0000  1474592    4.90%
    854   624      296.1667   286      286.0000      300.0000  1497984    4.90%
Elapsed time = 394.09 sec. (374858.12 ticks, tree = 14.52 MB, solutions = 4)
    877   640      298.0000   293      286.0000      300.0000  1513187    4.90%
    899   655      298.0000   289      286.0000      300.0000  1531900    4.90%
    919   669      298.0000   288      286.0000      300.0000  1558147    4.90%
    941   686      298.0000   214      286.0000      300.0000  1577355    4.90%
    968   702      296.1667   244      286.0000      300.0000  1602368    4.90%
    989   716      298.7500   440      286.0000      300.0000  1633156    4.90%
*   991+  716                          289.0000      300.0000             3.81%
*   992+  691                          293.0000      300.0000             2.39%
    994   693      298.6667   589      293.0000      300.0000  1652453    2.39%
   1008   702      294.0000   584      293.0000      300.0000  1671055    2.39%
   1034   706      294.0000   522      293.0000      300.0000  1687922    2.39%
   1050   716      294.0000   286      293.0000      300.0000  1720337    2.39%
Elapsed time = 494.25 sec. (462329.65 ticks, tree = 16.68 MB, solutions = 6)
   1060   726      294.0000   189      293.0000      300.0000  1765819    2.39%
   1074   736      294.0000   127      293.0000      300.0000  1813666    2.39%
   1087   741      300.0000   523      293.0000      300.0000  1861861    2.39%
   1093   747      300.0000   464      293.0000      300.0000  1900693    2.39%
   1099   752      299.0000   510      293.0000      300.0000  1950044    2.39%

Performing restart 1

Repeating presolve.
Tried aggregator 1 time.
MIP Presolve eliminated 0 rows and 293 columns.
MIP Presolve modified 8 coefficients.
Reduced MIP has 2695 rows, 6007 columns, and 77882 nonzeros.
Reduced MIP has 6007 binaries, 0 generals, 0 SOSs, and 0 indicators.
Presolve time = 0.04 sec. (38.36 ticks)
Tried aggregator 1 time.
Reduced MIP has 2695 rows, 6007 columns, and 77882 nonzeros.
Reduced MIP has 6007 binaries, 0 generals, 0 SOSs, and 0 indicators.
Presolve time = 0.05 sec. (39.56 ticks)
Represolve time = 0.19 sec. (147.25 ticks)
   1102     2      300.0000    26      293.0000      300.0000  1977519    2.39%
*  1105     1      integral     0      300.0000      300.0000  1985539    0.00%

Root node processing (before b&c):
  Real time             =   28.85 sec. (31338.15 ticks)
Sequential b&c:
  Real time             =  531.82 sec. (488848.69 ticks)
                          ------------
Total (root+branch&cut) =  560.67 sec. (520186.84 ticks)
Primal:	300
Dual:	300
Status:	Optimal
Time:	560.69
Sequence:
	10
	19
	4
	13
	15
	1
	18
	2
	18
	1
	12
	18
	16
	11
	6
	15
	13
	17
	7
	6
	12
	11
	2
	4
	18
	1
	15
	16
	18
	19
	14
	12
	16
	19
	9
	6
	10
	3
	8
	9
	14
	19
	12
	16
	9
	19
	6
	12
	7
	11
	0
	6
	8
	11
	14
	0
	6
	11
	0
	14
	8
	1
	18
	2
	6
	17
	14
	18
	8
	3
	15
	13
	6
	17
	7
	12
	4
	1
	2
	18
	15
	3
	5
	8
	7
	17
	14
	5
	16
	19
	8
	14
	7
	17
	6
	2
	14
	19
	8
	18
	14
	17
	7
	12
	4
	3
	10
	4
	12
	3
	7
	12
	18
	17
	14
	4
	15
	11
	16
	6
	9
	3
	16
	12
	6
	3
	9
	16
	12
	3
	6
	7
	0
	1
	8
	14
	18
	11
	15
	2
	6
	3
	9
	10
	0
	1
	4
	7
	12
	3
	12
	18
	7
	1
	0
	15
	18
	11
	6
	16
	15
	3
	4
	14
	18
	17
	7
	12
	14
	19
	16
	9
	10
	19
	14
	8
	7
	12
	3
	5
	8
	7
	1
	0
	5
	16
	19
	5
	2
	14
	17
	9
	6
	2
	11
	15
	18
	14
	17
	7
	12
	13
	19
	12
	9
	10
	19
	13
	12
	7
	17
	14
	4
	10
	19
	2
	6
	18
	1
	0
	2
	9
	1
	6
	2
	0
	19
	14
	6
	2
	9
	0
	1
	5
	0
	7
	17
	6
	13
	15
	11
	0
	5
	13
	1
	8
	0
	5
	11
	6
	2
	0
	1
	18
	14
	8
	3
	15
	13
	6
	3
	8
	10
	18
	1
	4
	2
	15
	3
	5
	13
	8
	19
	10
	6
	4
	11
	2
	15
	5
	3
	18
	16
	15
	1
	18
	7
	0
	1
	12
	13
	4
	11
	8
	10
	4
	19
	13
	12
	10
